TYPE : Vertex Cover
DIMENSION: 37
EDGE_DATA_SECTION:
0 14
0 17
0 20
0 25
0 26
0 30
1 9
1 11
1 15
1 18
1 28
1 31
2 5
2 8
2 10
2 16
2 18
2 20
2 24
2 27
3 15
3 17
3 31
3 33
3 34
4 6
4 8
4 21
4 24
5 8
5 10
5 11
5 21
5 27
5 29
5 31
6 7
6 10
6 23
6 26
6 29
6 34
7 8
7 9
7 11
7 15
7 20
7 27
7 36
8 12
8 15
8 22
8 23
8 24
8 28
9 14
9 18
9 35
10 24
10 27
10 28
10 30
10 35
11 20
11 22
11 26
11 28
11 31
11 33
12 21
12 22
12 23
12 29
13 18
13 26
13 34
14 15
14 22
14 25
15 23
15 24
15 36
16 19
16 20
16 28
16 31
16 35
17 21
17 22
17 25
17 29
17 36
18 26
19 27
19 32
20 22
20 26
20 28
20 33
21 24
21 25
21 28
21 29
21 32
21 33
21 36
22 23
22 25
22 26
22 33
22 34
23 29
23 31
23 32
23 33
23 35
24 29
24 33
24 36
25 31
25 32
25 33
25 34
26 28
26 32
27 30
27 34
30 33
31 34
33 36
34 36
-1
VERTEX_DEGREE:
6.0 6.0 8.0 5.0 4.0 8.0 7.0 8.0 10.0 5.0 8.0 9.0 5.0 3.0 5.0 8.0 6.0 7.0 5.0 3.0 9.0 11.0 11.0 10.0 9.0 9.0 9.0 7.0 8.0 7.0 4.0 8.0 5.0 10.0 8.0 4.0 7.0
VERTEX_COVER:
0 2 3 4 7 8 9 10 11 15 16 18 19 21 22 23 25 26 27 28 29 31 33 34 36
EOF
